c uprop, v00.0, 
c reading from data/prog372.c.cnf
c done reading: 0.002611
p cnf 126 450
-69 -89 0
69 89 0
69 -97 0
-69 97 0
-76 89 0
-76 -77 0
76 77 -89 0
77 -82 -89 0
-77 -82 89 0
77 82 89 0
-77 82 -89 0
76 -87 0
-87 -91 0
-76 87 91 0
-76 91 -93 0
76 -91 -93 0
76 91 93 0
-76 -91 93 0
87 -95 0
-95 -98 0
-87 95 98 0
-87 98 -101 0
87 -98 -101 0
87 98 101 0
-87 -98 101 0
-72 95 0
-72 -73 0
72 73 -95 0
-68 73 -95 0
-68 -73 95 0
68 73 95 0
68 -73 -95 0
-66 72 0
-66 -79 0
66 -72 79 0
-64 -72 79 0
-64 72 -79 0
64 72 79 0
64 -72 -79 0
-62 66 0
-62 -84 0
62 -66 84 0
-60 -66 84 0
-60 66 -84 0
60 66 84 0
60 -66 -84 0
-58 91 0
58 -91 0
56 -69 -98 0
-56 69 98 0
-56 98 0
-56 69 0
-55 -56 98 0
-55 -56 69 0
-55 -56 0
55 56 -98 0
55 56 -69 0
-55 69 98 0
53 -73 -77 0
53 -56 -73 0
53 -56 -77 0
-53 73 77 0
-53 56 73 0
-53 56 77 0
-52 -53 73 0
-52 -53 77 0
-52 -53 56 0
52 53 -73 0
52 53 -77 0
52 53 -56 0
52 -56 -73 -77 0
-52 56 73 77 0
50 -79 -91 0
50 -53 -79 0
50 -53 -91 0
-50 79 91 0
-50 53 79 0
-50 53 91 0
-49 -50 79 0
-49 -50 91 0
-49 -50 53 0
49 50 -79 0
49 50 -91 0
49 50 -53 0
49 -53 -79 -91 0
-49 53 79 91 0
47 -84 -98 0
47 -50 -84 0
47 -50 -98 0
-47 84 98 0
-47 50 84 0
-47 50 98 0
-47 84 -103 0
-47 98 -103 0
-47 50 -103 0
47 -84 103 0
47 -98 103 0
47 -50 103 0
-50 -84 -98 103 0
50 84 98 -103 0
73 -104 0
47 -104 0
-47 -73 104 0
-47 -73 -106 0
47 73 -106 0
47 -73 106 0
-47 73 106 0
79 -107 0
104 -107 0
-79 -104 107 0
-79 -104 -108 0
79 104 -108 0
-79 104 108 0
79 -104 108 0
-70 84 0
-70 107 0
70 -84 -107 0
-78 -84 -107 0
-78 84 107 0
78 -84 107 0
78 84 -107 0
52 -99 0
-52 99 0
-49 -69 74 0
49 69 -74 0
49 -74 0
69 -74 0
49 -74 -80 0
69 -74 -80 0
-74 -80 0
-49 74 80 0
-69 74 80 0
49 69 -80 0
-77 85 -103 0
-74 85 -103 0
-74 -77 85 0
77 -85 103 0
74 -85 103 0
74 77 -85 0
-85 103 -109 0
77 -85 -109 0
74 -85 -109 0
85 -103 109 0
-77 85 109 0
-74 85 109 0
-74 -77 -103 109 0
74 77 103 -109 0
-91 -106 110 0
-85 -106 110 0
-85 -91 110 0
91 106 -110 0
85 106 -110 0
85 91 -110 0
-106 110 0
-91 110 0
-85 110 0
-85 -91 -106 0
-98 -108 111 0
-108 -110 111 0
-98 -110 111 0
98 108 -111 0
108 110 -111 0
98 110 -111 0
-108 111 0
-98 111 0
-110 111 0
-98 -108 -110 0
-73 -78 112 0
-78 -111 112 0
-73 -111 112 0
73 78 -112 0
78 111 -112 0
73 111 -112 0
-78 112 0
-73 112 0
-111 112 0
-73 -78 -111 0
-70 -79 113 0
-70 -112 113 0
-79 -112 113 0
70 79 -113 0
70 112 -113 0
79 112 -113 0
-70 113 0
-79 113 0
-112 113 0
-70 -79 -112 0
-84 -113 0
-84 113 0
84 -113 0
-69 -114 0
69 114 0
69 -115 0
-69 115 0
114 -116 0
-77 -116 0
77 -114 116 0
77 -114 -117 0
-77 114 -117 0
77 114 117 0
-77 -114 117 0
116 -118 0
-58 -118 0
58 -116 118 0
58 -116 -119 0
-58 116 -119 0
58 116 119 0
-58 -116 119 0
118 -120 0
-55 -120 0
55 -118 120 0
55 -118 -121 0
-55 118 -121 0
55 118 121 0
-55 -118 121 0
120 -122 0
-99 -122 0
99 -120 122 0
99 -120 -123 0
-99 120 -123 0
99 120 123 0
-99 -120 123 0
122 -124 0
-80 -124 0
80 -122 124 0
80 -122 -125 0
-80 122 -125 0
80 122 125 0
-80 -122 125 0
124 -126 0
-109 -126 0
109 -124 126 0
-90 109 -124 0
-90 -109 124 0
90 109 124 0
90 -109 -124 0
-46 126 0
46 -126 0
-45 -126 0
45 126 0
-44 46 0
44 -46 0
-43 -46 0
43 46 0
-42 44 0
42 -44 0
-41 -44 0
41 44 0
-40 42 0
40 -42 0
-39 -42 0
39 42 0
-38 40 0
38 -40 0
-37 -40 0
37 40 0
-36 38 0
36 -38 0
-35 -38 0
35 38 0
-32 -34 0
-31 -32 0
31 32 34 0
-29 31 34 0
-29 -31 -34 0
29 31 -34 0
29 -31 34 0
-28 32 0
-27 -28 0
27 28 -32 0
-25 27 -32 0
-25 -27 32 0
25 27 32 0
25 -27 -32 0
-24 28 0
24 -28 0
-23 -28 0
23 28 0
-22 24 0
22 -24 0
-21 -24 0
21 24 0
-20 22 0
20 -22 0
-19 -22 0
19 22 0
-18 20 0
18 -20 0
-17 -20 0
17 20 0
-16 18 0
16 -18 0
-15 -18 0
15 18 0
-14 34 0
14 -34 0
13 -31 0
-13 31 0
12 -27 0
-12 27 0
13 -83 0
34 -83 0
-13 -34 83 0
-13 -33 -34 0
13 -33 34 0
-13 33 34 0
13 33 -34 0
-12 30 -31 0
-12 30 -83 0
30 -31 -83 0
12 -30 31 0
12 -30 83 0
-30 31 83 0
12 -26 -30 0
-26 -30 31 0
-26 -30 83 0
-12 26 30 0
26 30 -31 0
26 30 -83 0
-12 26 -31 -83 0
12 -26 31 83 0
-27 -30 0
11 -27 0
11 -30 0
-11 27 30 0
-10 -34 0
-10 -31 0
10 31 34 0
-9 31 34 0
-9 -31 -34 0
9 31 -34 0
9 -31 34 0
-8 10 0
-8 -27 0
8 -10 27 0
-7 -10 27 0
-7 10 -27 0
7 10 27 0
7 -10 -27 0
-6 8 0
-6 -14 0
6 -8 14 0
-5 -8 14 0
-5 8 -14 0
5 8 14 0
5 -8 -14 0
-4 6 0
-4 -33 0
4 -6 33 0
-3 -6 33 0
-3 6 -33 0
3 6 33 0
3 -6 -33 0
-2 4 0
-2 -26 0
2 -4 26 0
-4 26 -88 0
4 -26 -88 0
4 26 88 0
-4 -26 88 0
2 -96 0
-11 -96 0
-2 11 96 0
-2 11 -75 0
2 -11 -75 0
2 11 75 0
-2 -11 75 0
-81 96 0
81 -96 0
-86 -96 0
86 96 0
81 -92 0
-81 92 0
-81 -94 0
81 94 0
92 -100 0
-92 100 0
-71 -92 0
71 92 0
-67 100 0
67 -100 0
-65 -100 0
65 100 0
-63 67 0
63 -67 0
-61 -67 0
61 67 0
-59 63 0
59 -63 0
-1 -63 0
1 63 0
-57 69 0
34 -57 0
-34 57 -69 0
34 -69 0
-34 69 0
-31 54 -77 0
54 -57 -77 0
-31 54 -57 0
31 -54 77 0
-54 57 77 0
31 -54 57 0
-54 77 0
31 -54 0
-54 57 0
31 57 77 0
-27 51 -58 0
51 -54 -58 0
-27 51 -54 0
27 -51 58 0
-51 54 58 0
27 -51 54 0
51 -58 0
-27 51 0
51 -54 0
-27 -54 -58 0
-14 48 -55 0
48 -51 -55 0
-14 48 -51 0
14 -48 55 0
-48 51 55 0
14 -48 51 0
-48 55 0
14 -48 0
-48 51 0
14 51 55 0
-33 -99 102 0
-48 -99 102 0
-33 -48 102 0
33 99 -102 0
48 99 -102 0
33 48 -102 0
-99 102 0
-33 102 0
-48 102 0
-33 -48 -99 0
-26 -80 105 0
-80 -102 105 0
-26 -102 105 0
26 80 -105 0
80 102 -105 0
26 102 -105 0
-80 105 0
-26 105 0
-102 105 0
-26 -80 -102 0
-11 -109 0
-105 -109 0
-11 -105 0
11 105 109 0
